(set-logic QF_S)
(declare-fun var0 () Bool)
(declare-fun var1 () String)
(declare-fun var2 () String)
(declare-fun var3 () Int)
(declare-fun var4 () String)
(declare-fun var5 () Int)
(declare-fun var6 () Int)
(declare-fun var7 () String)
(declare-fun var8 () Int)
(assert (not var0))
(assert (<= (str.to.int "y") (str.to.int var1)))
(assert (str.in.re (str.at var2 var3) (re.+ (re.* re.allchar))))
(assert (str.suffixof (str.substr var4 var5 var6) (str.substr var7 var8 78)))
(check-sat)